p cnf 35 97
a 8 0
e 1 2 3 4 5 6 7 9 10 11 12 13 14 15 16 17 18 19 20 21 22 23 24 25 26 27 28 29 30 31 32 33 34 35 0
-3 -1 0
-3 -2 0
1 2 3 0
-4 -5 -6 0
4 5 -6 0
-4 5 6 0
4 -5 6 0
3 6 -7 0
-3 -6 -7 0
3 -6 7 0
-3 6 7 0
7 8 -9 0
-7 -8 -9 0
7 -8 9 0
-7 8 9 0
11 -5 0
11 -10 0
5 10 -11 0
12 10 0
12 11 0
-10 -11 -12 0
13 -2 0
13 12 0
2 -12 -13 0
-14 12 0
-14 -11 0
-12 11 14 0
-16 -15 0
-16 -4 0
15 4 16 0
-17 -14 0
-17 16 0
14 -16 17 0
-19 12 0
-19 18 0
-12 -18 19 0
-4 5 -20 0
4 -5 -20 0
-4 -5 20 0
4 5 20 0
-21 -10 0
-21 20 0
10 -20 21 0
22 2 0
22 -21 0
-2 21 -22 0
23 -19 0
23 22 0
19 -22 -23 0
-24 17 0
-24 -23 0
-17 23 24 0
-13 -24 -25 0
13 24 -25 0
-13 24 25 0
13 -24 25 0
-26 9 0
-26 -25 0
-9 25 26 0
15 27 0
-15 27 0
27 8 -28 0
-27 -8 -28 0
27 -8 28 0
-27 8 28 0
-29 28 0
-29 -3 0
-28 3 29 0
30 29 0
30 7 0
-29 -7 -30 0
31 26 0
31 -30 0
-26 30 -31 0
-32 -7 0
-32 21 0
7 -21 32 0
-11 -28 -33 0
11 28 -33 0
-11 28 33 0
11 -28 33 0
-34 32 0
-34 -33 0
-32 33 34 0
35 31 0
35 -34 0
-31 34 -35 0
-35 21 -11 19 -9 0
-29 19 17 0
5 32 -13 -8 0
-32 30 8 -23 -10 0
-18 -5 -28 2 -35 0
17 12 7 15 24 -8 0
10 8 5 23 -19 11 0
26 31 33 6 0
5 27 -16 6 -9 32 0
35 0
